32 2000
10 139
10 175
7 102
5 176
10 181
11 176
8 108
4 175
9 181
4 172
5 172
5 100
8 198
8 105
10 100
10 102
2 105
11 111
2 175
7 136
11 136
9 106
11 198
2 106
4 173
2 118
9 173
7 108
6 118
4 139
4 175
5 111
